9774 10226 1134
10871 9129 1147
7494 11506 1064
11652 9348 1074
5960 12040 942
12766 7234 1009
10551 10449 1077
9421 10579 1128
9428 8572 1190
11750 8250 1111
12038 8962 1025
8824 9176 1185
8218 11782 991
10476 8524 1176
10162 8838 1175
10907 10093 940
8373 10627 1142
10064 9936 1138
7969 11031 1110
10841 10159 1081
11790 9210 1061
12315 8685 966
12206 7794 1066
8791 11209 1072
10005 10995 1020
9071 9929 1170
7119 11881 1013
11606 8394 1125
